4 10 6 18 14 11 8 15 5 9 19 3 13 12 17 16 0 1 7 2  
4 10 6 18 14 11 8 15 5 9 19 2 13 12 17 16 0 1 7 3  
4 10 6 18 14 11 8 15 5 9 19 2 13 12 17 16 0 1 7 3  
4 10 11 18 14 6 15 7 9 19 16 5 2 13 12 0 1 17 8 3  
4 10 6 18 14 11 8 15 5 9 19 2 13 12 17 16 0 1 7 3  
4 10 6 11 14 18 15 7 9 19 16 5 2 13 12 0 1 17 3 8  
4 10 6 18 14 11 8 15 5 9 19 2 13 12 17 1 0 16 7 3  
4 10 6 18 14 11 8 15 5 9 19 2 13 12 17 16 0 1 7 3  
4 10 6 18 14 11 15 5 8 9 19 16 17 1 13 12 0 2 7 3  
4 10 6 18 15 7 11 9 19 16 5 2 8 17 13 12 0 1 3 14  
4 10 6 18 14 11 8 15 17 9 19 16 5 3 13 12 0 1 7 2  
4 10 6 18 14 15 5 11 9 16 17 8 13 12 0 2 1 7 3 19  
4 10 6 11 15 7 18 9 19 16 5 2 8 17 13 12 0 1 3 14  
4 10 6 18 15 7 8 9 19 11 2 16 5 17 13 12 0 1 3 14  
4 10 6 18 15 0 11 2 19 16 5 9 13 12 7 1 17 3 14 8  
4 10 6 18 14 11 5 9 8 15 17 19 16 3 13 12 0 1 2 7  
4 10 6 11 18 15 5 9 19 7 2 13 0 8 16 1 17 12 3 14  
4 10 6 18 15 14 5 9 11 19 2 16 0 1 7 13 12 17 3 8  
4 10 6 18 14 15 5 9 11 16 8 17 13 12 0 2 1 7 3 19  
4 10 6 18 14 11 8 15 7 9 19 12 17 13 16 5 2 3 1 0  
4 10 6 18 15 7 8 9 11 19 2 16 5 17 13 12 0 1 3 14  
4 10 6 18 14 11 8 15 7 9 19 12 17 13 16 5 2 3 1 0  
4 10 6 18 14 11 15 5 9 8 19 16 17 3 13 12 0 7 1 2  
4 10 6 18 14 11 8 15 0 9 19 3 13 12 17 1 5 2 16 7  
4 10 6 18 14 11 15 5 9 8 19 16 17 1 13 12 0 7 3 2  
4 10 6 18 15 7 9 11 19 16 5 17 12 2 0 1 13 3 14 8  
4 10 6 18 14 11 8 15 5 9 19 3 13 12 17 16 0 1 7 2  
4 10 6 18 14 15 11 5 9 8 19 16 17 3 13 12 0 1 7 2  
4 10 6 18 14 11 8 15 5 9 19 2 13 12 17 16 0 1 7 3  
4 10 6 18 14 8 11 5 9 19 16 17 15 3 13 12 0 7 2 1  
4 10 6 18 14 11 15 5 9 8 13 16 0 2 1 17 19 12 7 3  
4 10 6 18 15 7 11 9 19 16 5 2 13 0 12 1 17 3 14 8  
4 10 6 18 14 7 8 5 9 19 16 17 15 3 13 12 0 11 2 1  
4 10 6 15 18 14 5 9 11 19 2 16 17 1 7 13 12 0 8 3  
4 10 6 18 14 11 8 15 5 9 19 2 13 12 0 17 1 16 7 3  
4 10 6 18 14 11 15 5 9 8 19 16 17 3 13 12 0 2 7 1  
4 10 6 18 14 15 5 9 8 16 11 17 13 12 0 7 3 1 2 19  
4 10 6 18 15 7 11 9 19 16 5 8 0 2 13 12 17 1 3 14  
4 10 6 18 15 0 11 19 16 5 9 1 17 13 12 7 2 3 14 8  
4 10 6 18 15 7 11 5 9 19 2 8 13 0 16 1 17 12 3 14  
4 10 6 18 14 8 11 15 5 9 19 13 12 17 16 0 1 7 2 3  
4 10 6 18 14 11 8 15 0 9 19 3 13 12 17 16 5 2 7 1  
4 10 6 18 15 14 5 9 11 19 2 16 0 1 17 13 12 7 3 8  
4 10 6 18 15 14 5 9 11 19 16 0 2 1 17 13 12 7 3 8  
4 10 6 18 15 14 5 9 11 19 2 16 0 1 17 13 12 7 3 8  
4 10 6 18 15 14 5 11 9 19 16 0 2 1 17 13 12 7 3 8  
4 10 6 18 14 11 5 9 8 15 0 19 3 13 12 17 7 2 16 1  
4 10 6 18 15 11 0 19 16 5 9 12 17 13 1 7 2 3 14 8  
4 10 6 18 15 7 8 9 19 2 11 16 5 17 13 12 0 1 3 14  
4 10 6 18 14 11 15 5 9 8 19 16 17 1 7 13 12 0 2 3  
4 10 6 18 14 11 8 15 5 9 19 2 13 12 17 16 0 1 7 3  
18 10 6 4 14 8 11 15 5 9 19 2 13 12 17 16 0 1 7 3  
